p cnf 65 172
1 -43 -39 0
-1 43 -39 0
1 43 -40 0
-1 -43 -40 0
20 -43 -41 0
-20 43 -41 0
20 43 -42 0
-20 -43 -42 0
2 -39 0
2 -40 0
39 -39 0
40 -40 0
21 -41 0
21 -42 0
41 -41 0
42 -42 0
3 -39 0
3 -40 0
39 -39 0
40 -40 0
22 -41 0
22 -42 0
41 -41 0
42 -42 0
4 -39 0
4 -40 0
39 -39 0
40 -40 0
23 -41 0
23 -42 0
41 -41 0
42 -42 0
5 -39 0
5 -40 0
39 -39 0
40 -40 0
24 -41 0
24 -42 0
41 -41 0
42 -42 0
6 -44 -39 0
-6 44 -39 0
6 44 -40 0
-6 -44 -40 0
25 -44 -41 0
-25 44 -41 0
25 44 -42 0
-25 -44 -42 0
7 -45 -39 0
-7 45 -39 0
7 45 -40 0
-7 -45 -40 0
26 -45 -41 0
-26 45 -41 0
26 45 -42 0
-26 -45 -42 0
8 -46 -39 0
-8 46 -39 0
8 46 -40 0
-8 -46 -40 0
27 -46 -41 0
-27 46 -41 0
27 46 -42 0
-27 -46 -42 0
9 -47 -39 0
-9 47 -39 0
9 47 -40 0
-9 -47 -40 0
28 -47 -41 0
-28 47 -41 0
28 47 -42 0
-28 -47 -42 0
10 -48 -39 0
-10 48 -39 0
10 48 -40 0
-10 -48 -40 0
29 -48 -41 0
-29 48 -41 0
29 48 -42 0
-29 -48 -42 0
11 -49 -39 0
-11 49 -39 0
11 49 -40 0
-11 -49 -40 0
30 -49 -41 0
-30 49 -41 0
30 49 -42 0
-30 -49 -42 0
12 -50 -39 0
-12 50 -39 0
12 50 -40 0
-12 -50 -40 0
31 -50 -41 0
-31 50 -41 0
31 50 -42 0
-31 -50 -42 0
13 -39 0
13 -40 0
39 -39 0
40 -40 0
32 -41 0
32 -42 0
41 -41 0
42 -42 0
14 -39 0
14 -40 0
39 -39 0
40 -40 0
33 -41 0
33 -42 0
41 -41 0
42 -42 0
15 -39 0
15 -40 0
39 -39 0
40 -40 0
34 -41 0
34 -42 0
41 -41 0
42 -42 0
16 -39 0
16 -40 0
39 -39 0
40 -40 0
35 -41 0
35 -42 0
41 -41 0
42 -42 0
17 -39 0
17 -40 0
39 -39 0
40 -40 0
36 -41 0
36 -42 0
41 -41 0
42 -42 0
18 -39 0
18 -40 0
39 -39 0
40 -40 0
37 -41 0
37 -42 0
41 -41 0
42 -42 0
19 -39 0
19 -40 0
39 -39 0
40 -40 0
38 -41 0
38 -42 0
41 -41 0
42 -42 0
-62 39 0
62 -39 0
-63 40 0
62 -40 0
-62 -39 0
-63 -40 0
-64 39 62 0
64 -39 0
64 -62 0
-65 40 63 0
65 -40 0
65 -63 0
-64 -41 0
-65 -42 0
64 0
65 0
-39 42 0
-40 0
-41 0
-42 39 0
